NAME : ClusterId_103 
COMMENT : (Gillet and Johnson) 
TYPE : CVRP 
DIMENSION : 22 
EDGE_WEIGHT_TYPE : EUC_2D 
CAPACITY : 100 
NODE_COORD_SECTION 
103 35 20 
43 23 3 
42 24 12 
15 30 5 
97 25 21 
95 25 24 
87 28 18 
57 32 12 
2 35 17 
41 42 7 
58 36 26 
22 45 10 
40 40 25 
53 37 31 
73 44 17 
74 46 13 
75 49 11 
21 45 20 
72 47 16 
23 55 5 
26 45 30 
56 53 12 
DEMAND_SECTION 
103 4370
43 7
42 5
15 8
97 12
95 20
87 26
57 7
2 7
41 5
58 18
22 18
40 9
53 14
73 9
74 8
75 18
21 11
72 25
23 29
26 17
56 6
DEPOT_SECTION 
103
 -1
EOF